% demand
num_movements = 52;
loading_factor = [1050, 1000, 900, 1700, 1850, 1950, 900, 1200, 1750, 1250, 1800, 1550, 1450, 1400, 1150, 1750, 1700, 1200, 1350, 950, 1200, 1900, 900, 1300, 2000, 1450, 900, 1650, 900, 1550, 1050, 1950, 950, 1900, 1050, 1850, 1500, 1600, 1300, 1250, 800, 1450, 1500, 1100, 1000, 1200, 1250, 1700, 1200, 1500, 800, 850];
pickup_time = [0, 0, 0, 0, 0, 1, 1, 1, 1, 1, 1, 1, 2, 2, 2, 2, 3, 3, 3, 4, 5, 5, 5, 5, 5, 5, 5, 6, 6, 6, 6, 6, 6, 6, 6, 7, 7, 8, 8, 10, 10, 11, 11, 11, 11, 11, 11, 11, 12, 12, 12, 12];
delivery_time = [1, 1, 1, 1, 1, 3, 2, 2, 2, 3, 2, 3, 3, 3, 5, 5, 5, 5, 6, 5, 6, 6, 6, 6, 6, 6, 6, 9, 9, 9, 8, 7, 7, 9, 7, 9, 8, 9, 9, 13, 11, 13, 12, 13, 12, 12, 13, 12, 13, 13, 13, 13];

% transporter definition
total_capacity = 11000;
num_decks = 4;
capacity = [3000, 3000, 1000, 4000];

% ways out of decks
num_ways_out = 2;
paths_out = array3d(decks, ways_out, decks, [
% ways out of deck d1
2, 4, 0, 0, 3, 4, 0, 0, 

% ways out of deck d2
4, 0, 0, 0, 0, 0, 0, 0,	

% ways out of deck d3
4, 0, 0, 0, 0, 0, 0, 0,	

% ways out of deck d4
0, 0, 0, 0,	0, 0, 0, 0,	

]);

